
  21    0


   0  10 2 3 4 6 7 8 17 18 19 20 
   4   5 13 12 11 10 9 
   9   4 13 12 10 5 
  10   3 16 15 9 
   6   1 11 
   5   1 14 
   5   1 10 
   7   1 9 
   4   1 21
   7   1 21
   3   1 21
   7   1 21
   7   1 21
   6   1 21
   3   1 21
   5   1 21
   2   1 21
   4   1 21
   4   1 21
   4   1 21
   0   0 
